476272
476272
476272
475220
452181
452181
452181
452181
452181
452181
443383
443383
443383
431347
431347
431347
431347
431347
431347
431347
431347
425631
425631
425631
420615
420615
420615
420615
420615
420615
420615
420615
420615
420615
420615
420615
419748
419748
419748
413348
413348
413348
402065
402065
402065
402065
402065
399479
399479
399479
399479
399479
395061
395061
395061
395061
391654
389700
389700
389700
389700
389700
389700
389700
389700
389700
389700
389700
389700
389700
356878
356878
356878
356878
356878
356878
356878
356878
356878
356878
356878
356878
356878
356878
356878
356878
356878
356878
356878
356878
356878
356878
356878
356878
356878
356878
356878
356878
353841
353841
